c leafs=70, vars=17, seed=1, tickle=1, pretickle_path=1
p cnf 853 2299                                                                
e 18 19 20 21 22 23 24 25 26 27 28 29 30 31 32 33 34 35 36 37 38 39 40 41 42 43 44 45 46 47 48 49 50 51 52 53 54 55 56 57 58 59 60 61 62 63 64 65 66 67 68 69 70 71 72 73 74 75 76 77 78 79 80 81 82 83 84 85 86 87  0
a 1 2 3 4 5 6 7 8 9 10 11 12 13 14 15 16 17  0
e 88 89 90 91 92 93 94 95 96 97 98 99 100 101 102 103 104 105 106 107 108 109 110 111 112 113 114 115 116 117 118 119 120 121 122 123 124 125 126 127 128 129 130 131 132 133 134 135 136 137 138 139 140 141 142 143 144 145 146 147 148 149 150 151 152 153 154 155 156 157 158 159 160 161 162 163 164 165 166 167 168 169 170 171 172 173 174 175 176 177 178 179 180 181 182 183 184 185 186 187 188 189 190 191 192 193 194 195 196 197 198 199 200 201 202 203 204 205 206 207 208 209 210 211 212 213 214 215 216 217 218 219 220 221 222 223 224 225 226 227 228 229 230 231 232 233 234 235 236 237 238 239 240 241 242 243 244 245 246 247 248 249 250 251 252 253 254 255 256 257 258 259 260 261 262 263 264 265 266 267 268 269 270 271 272 273 274 275 276 277 278 279 280 281 282 283 284 285 286 287 288 289 290 291 292 293 294 295 296 297 298 299 300 301 302 303 304 305 306 307 308 309 310 311 312 313 314 315 316 317 318 319 320 321 322 323 324 325 326 327 328 329 330 331 332 333 334 335 336 337 338 339 340 341 342 343 344 345 346 347 348 349 350 351 352 353 354 355 356 357 358 359 360 361 362 363 364 365 366 367 368 369 370 371 372 373 374 375 376 377 378 379 380 381 382 383 384 385 386 387 388 389 390 391 392 393 394 395 396 397 398 399 400 401 402 403 404 405 406 407 408 409 410 411 412 413 414 415 416 417 418 419 420 421 422 423 424 425 426 427 428 429 430 431 432 433 434 435 436 437 438 439 440 441 442 443 444 445 446 447 448 449 450 451 452 453 454 455 456 457 458 459 460 461 462 463 464 465 466 467 468 469 470 471 472 473 474 475 476 477 478 479 480 481 482 483 484 485 486 487 488 489 490 491 492 493 494 495 496 497 498 499 500 501 502 503 504 505 506 507 508 509 510 511 512 513 514 515 516 517 518 519 520 521 522 523 524 525 526 527 528 529 530 531 532 533 534 535 536 537 538 539 540 541 542 543 544 545 546 547 548 549 550 551 552 553 554 555 556 557 558 559 560 561 562 563 564 565 566 567 568 569 570 571 572 573 574 575 576 577 578 579 580 581 582 583 584 585 586 587 588 589 590 591 592 593 594 595 596 597 598 599 600 601 602 603 604 605 606 607 608 609 610 611 612 613 614 615 616 617 618 619 620 621 622 623 624 625 626 627 628 629 630 631 632 633 634 635 636 637 638 639 640 641 642 643 644 645 646 647 648 649 650 651 652 653 654 655 656 657 658 659 660 661 662 663 664 665 666 667 668 669 670 671 672 673 674 675 676 677 678 679 680 681 682 683 684 685 686 687 688 689 690 691 692 693 694 695 696 697 698 699 700 701 702 703 704 705 706 707 708 709 710 711 712 713 714 715 716 717 718 719 720 721 722 723 724 725 726 727 728 729 730 731 732 733 734 735 736 737 738 739 740 741 742 743 744 745 746 747 748 749 750 751 752 753 754 755 756 757 758 759 760 761 762 763 764 765 766 767 768 769 770 771 772 773 774 775 776 777 778 779 780 781 782 783 784 785 786 787 788 789 790 791 792 793 794 795 796 797 798 799 800 801 802 803 804 805 806 807 808 809 810 811 812 813 814 815 816 817 818 819 820 821 822 823 824 825 826 827 828 829 830 831 832 833 834 835 836 837 838 839 840 841 842 843 844 845 846 847 848 849 850 851 852 853  0
853  0
-88 -4 15  0
88 4  0
88 -15  0
-89 -15 4  0
89 15  0
89 -4  0
-90 -5 14  0
90 5  0
90 -14  0
-91 -14 5  0
91 14  0
91 -5  0
-92 -5 7  0
92 5  0
92 -7  0
-93 -7 5  0
93 7  0
93 -5  0
-94 -14 -6  0
94 14  0
94 6  0
-95 6 14  0
95 -6  0
95 -14  0
-96 1 11  0
96 -1  0
96 -11  0
-97 -11 -1  0
97 11  0
97 1  0
-98 -6 14  0
98 6  0
98 -14  0
-99 -14 6  0
99 14  0
99 -6  0
100 8 2  0
-100 -8  0
-100 -2  0
101 4 2  0
-101 -4  0
-101 -2  0
102 -2 -4  0
-102 2  0
-102 4  0
103 8 1  0
-103 -8  0
-103 -1  0
104 -1 -8  0
-104 1  0
-104 8  0
105 8 -13  0
-105 -8  0
-105 13  0
-106 -13 -3  0
106 13  0
106 3  0
-107 3 13  0
107 -3  0
107 -13  0
108 4 -2  0
-108 -4  0
-108 2  0
109 2 -4  0
-109 -2  0
-109 4  0
110 8 -1  0
-110 -8  0
-110 1  0
111 1 -8  0
-111 -1  0
-111 8  0
112 -8 -13  0
-112 8  0
-112 13  0
113 7 -4  0
-113 -7  0
-113 4  0
114 4 -7  0
-114 -4  0
-114 7  0
-115 -14 12  0
115 14  0
115 -12  0
116 15 -10  0
-116 -15  0
-116 10  0
117 10 -15  0
-117 -10  0
-117 15  0
118 -3 -17  0
-118 3  0
-118 17  0
119 17 3  0
-119 -17  0
-119 -3  0
120 15 14  0
-120 -15  0
-120 -14  0
121 -14 -15  0
-121 14  0
-121 15  0
122 12 4  0
-122 -12  0
-122 -4  0
123 -4 -12  0
-123 4  0
-123 12  0
124 4 -12  0
-124 -4  0
-124 12  0
125 12 -4  0
-125 -12  0
-125 4  0
-126 -15 14  0
126 15  0
126 -14  0
-127 -14 15  0
127 14  0
127 -15  0
128 15 10  0
-128 -15  0
-128 -10  0
129 -10 -15  0
-129 10  0
-129 15  0
-130 6 16  0
130 -6  0
130 -16  0
-131 -16 -6  0
131 16  0
131 6  0
-132 -6 16  0
132 6  0
132 -16  0
-133 -16 6  0
133 16  0
133 -6  0
-134 -16 -2  0
134 16  0
134 2  0
135 13 1  0
-135 -13  0
-135 -1  0
136 -1 -13  0
-136 1  0
-136 13  0
137 -2 -68  0
-137 2  0
-137 68  0
138 68 -15  0
-138 -68  0
-138 15  0
139 69 -9  0
-139 -69  0
-139 9  0
140 10 -69  0
-140 -10  0
-140 69  0
-141 5 66  0
141 -5  0
141 -66  0
-142 -66 7  0
142 66  0
142 -7  0
-143 -4 67  0
143 4  0
143 -67  0
-144 -67 -3  0
144 67  0
144 3  0
145 4 -65  0
-145 -4  0
-145 65  0
146 65 -3  0
-146 -65  0
-146 3  0
147 10 -64  0
-147 -10  0
-147 64  0
148 64 -17  0
-148 -64  0
-148 17  0
149 62 13  0
-149 -62  0
-149 -13  0
150 -8 -62  0
-150 8  0
-150 62  0
151 -10 -63  0
-151 10  0
-151 63  0
152 63 -1  0
-152 -63  0
-152 1  0
153 6 -56  0
-153 -6  0
-153 56  0
154 56 -15  0
-154 -56  0
-154 15  0
155 55 -14  0
-155 -55  0
-155 14  0
156 -6 -55  0
-156 6  0
-156 55  0
-157 -54 17  0
157 54  0
157 -17  0
-158 12 54  0
158 -12  0
158 -54  0
-159 -53 4  0
159 53  0
159 -4  0
-160 -17 53  0
160 17  0
160 -53  0
161 60 -9  0
-161 -60  0
-161 9  0
162 -8 -60  0
-162 8  0
-162 60  0
163 59 -11  0
-163 -59  0
-163 11  0
164 13 -59  0
-164 -13  0
-164 59  0
165 61 -6  0
-165 -61  0
-165 6  0
166 5 -61  0
-166 -5  0
-166 61  0
167 57 7  0
-167 -57  0
-167 -7  0
168 -3 -57  0
-168 3  0
-168 57  0
169 58 14  0
-169 -58  0
-169 -14  0
170 4 -58  0
-170 -4  0
-170 58  0
171 73 -7  0
-171 -73  0
-171 7  0
172 13 -73  0
-172 -13  0
-172 73  0
173 72 -2  0
-173 -72  0
-173 2  0
174 3 -72  0
-174 -3  0
-174 72  0
-175 -5 71  0
175 5  0
175 -71  0
-176 -71 11  0
176 71  0
176 -11  0
-177 8 70  0
177 -8  0
177 -70  0
-178 -70 14  0
178 70  0
178 -14  0
179 -16 -76  0
-179 16  0
-179 76  0
180 76 8  0
-180 -76  0
-180 -8  0
181 78 9  0
-181 -78  0
-181 -9  0
182 -1 -78  0
-182 1  0
-182 78  0
183 9 -77  0
-183 -9  0
-183 77  0
184 77 13  0
-184 -77  0
-184 -13  0
185 75 4  0
-185 -75  0
-185 -4  0
186 7 -75  0
-186 -7  0
-186 75  0
187 74 -2  0
-187 -74  0
-187 2  0
188 16 -74  0
-188 -16  0
-188 74  0
189 9 -87  0
-189 -9  0
-189 87  0
190 87 -16  0
-190 -87  0
-190 16  0
191 86 11  0
-191 -86  0
-191 -11  0
192 17 -86  0
-192 -17  0
-192 86  0
-193 -85 14  0
193 85  0
193 -14  0
-194 7 85  0
194 -7  0
194 -85  0
-195 -4 84  0
195 4  0
195 -84  0
-196 -84 11  0
196 84  0
196 -11  0
197 82 3  0
-197 -82  0
-197 -3  0
198 -13 -82  0
-198 13  0
-198 82  0
199 -17 -83  0
-199 17  0
-199 83  0
200 83 2  0
-200 -83  0
-200 -2  0
-201 -81 -1  0
201 81  0
201 1  0
-202 15 81  0
202 -15  0
202 -81  0
-203 -80 -12  0
203 80  0
203 12  0
-204 10 80  0
204 -10  0
204 -80  0
-205 14 79  0
205 -14  0
205 -79  0
-206 -79 -6  0
206 79  0
206 6  0
-207 3 23  0
207 -3  0
207 -23  0
-208 -23 14  0
208 23  0
208 -14  0
-209 -22 -9  0
209 22  0
209 9  0
-210 -5 22  0
210 5  0
210 -22  0
211 10 -24  0
-211 -10  0
-211 24  0
212 24 15  0
-212 -24  0
-212 -15  0
213 25 -11  0
-213 -25  0
-213 11  0
214 4 -25  0
-214 -4  0
-214 25  0
-215 -21 11  0
215 21  0
215 -11  0
-216 -5 21  0
216 5  0
216 -21  0
-217 -20 -9  0
217 20  0
217 9  0
-218 -4 20  0
218 4  0
218 -20  0
219 18 13  0
-219 -18  0
-219 -13  0
220 17 -18  0
-220 -17  0
-220 18  0
221 19 -1  0
-221 -19  0
-221 1  0
222 -10 -19  0
-222 10  0
-222 19  0
-223 -4 32  0
223 4  0
223 -32  0
-224 -32 -12  0
224 32  0
224 12  0
-225 16 34  0
225 -16  0
225 -34  0
-226 -34 -15  0
226 34  0
226 15  0
-227 -33 2  0
227 33  0
227 -2  0
-228 6 33  0
228 -6  0
228 -33  0
229 30 7  0
-229 -30  0
-229 -7  0
230 8 -30  0
-230 -8  0
-230 30  0
231 31 -5  0
-231 -31  0
-231 5  0
232 -1 -31  0
-232 1  0
-232 31  0
233 26 -5  0
-233 -26  0
-233 5  0
234 11 -26  0
-234 -11  0
-234 26  0
235 27 14  0
-235 -27  0
-235 -14  0
236 15 -27  0
-236 -15  0
-236 27  0
-237 -8 28  0
237 8  0
237 -28  0
-238 -28 17  0
238 28  0
238 -17  0
-239 -7 29  0
239 7  0
239 -29  0
-240 -29 3  0
240 29  0
240 -3  0
241 -7 -37  0
-241 7  0
-241 37  0
242 37 14  0
-242 -37  0
-242 -14  0
243 2 -38  0
-243 -2  0
-243 38  0
244 38 6  0
-244 -38  0
-244 -6  0
245 39 -5  0
-245 -39  0
-245 5  0
246 -10 -39  0
-246 10  0
-246 39  0
-247 -35 6  0
247 35  0
247 -6  0
-248 -14 35  0
248 14  0
248 -35  0
-249 1 36  0
249 -1  0
249 -36  0
-250 -36 9  0
250 36  0
250 -9  0
-251 -17 43  0
251 17  0
251 -43  0
-252 -43 -11  0
252 43  0
252 11  0
-253 -42 8  0
253 42  0
253 -8  0
-254 1 42  0
254 -1  0
254 -42  0
255 2 -41  0
-255 -2  0
-255 41  0
256 41 14  0
-256 -41  0
-256 -14  0
257 -6 -40  0
-257 6  0
-257 40  0
258 40 -5  0
-258 -40  0
-258 5  0
259 -14 -46  0
-259 14  0
-259 46  0
260 46 6  0
-260 -46  0
-260 -6  0
261 -3 -47  0
-261 3  0
-261 47  0
262 47 7  0
-262 -47  0
-262 -7  0
263 44 1  0
-263 -44  0
-263 -1  0
264 13 -44  0
-264 -13  0
-264 44  0
265 45 -8  0
-265 -45  0
-265 8  0
266 -2 -45  0
-266 2  0
-266 45  0
-267 6 52  0
267 -6  0
267 -52  0
-268 -52 -15  0
268 52  0
268 15  0
-269 3 51  0
269 -3  0
269 -51  0
-270 -51 -16  0
270 51  0
270 16  0
-271 -48 5  0
271 48  0
271 -5  0
-272 -2 48  0
272 2  0
272 -48  0
-273 -8 49  0
273 8  0
273 -49  0
-274 -49 5  0
274 49  0
274 -5  0
-275 -50 11  0
275 50  0
275 -11  0
-276 -9 50  0
276 9  0
276 -50  0
-277 -1 11  0
277 1  0
277 -11  0
-278 -11 1  0
278 11  0
278 -1  0
279 -88 -89  0
-279 88  0
-279 89  0
280 -90 -91  0
-280 90  0
-280 91  0
281 -92 -93  0
-281 92  0
-281 93  0
282 -94 -95  0
-282 94  0
-282 95  0
283 -96 -97  0
-283 96  0
-283 97  0
284 -98 -99  0
-284 98  0
-284 99  0
-285 101 102  0
285 -101  0
285 -102  0
-286 103 104  0
286 -103  0
286 -104  0
287 -106 -107  0
-287 106  0
-287 107  0
-288 108 109  0
288 -108  0
288 -109  0
-289 110 111  0
289 -110  0
289 -111  0
-290 113 114  0
290 -113  0
290 -114  0
291 -1 -115  0
-291 1  0
-291 115  0
292 1 115  0
-292 -1  0
-292 -115  0
-293 116 117  0
293 -116  0
293 -117  0
-294 118 119  0
294 -118  0
294 -119  0
-295 120 121  0
295 -120  0
295 -121  0
-296 122 123  0
296 -122  0
296 -123  0
-297 124 125  0
297 -124  0
297 -125  0
298 -126 -127  0
-298 126  0
-298 127  0
-299 128 129  0
299 -128  0
299 -129  0
300 -130 -131  0
-300 130  0
-300 131  0
301 -132 -133  0
-301 132  0
-301 133  0
-302 135 136  0
302 -135  0
302 -136  0
-303 137 138  0
303 -137  0
303 -138  0
-304 139 140  0
304 -139  0
304 -140  0
305 -141 -142  0
-305 141  0
-305 142  0
306 -143 -144  0
-306 143  0
-306 144  0
-307 145 146  0
307 -145  0
307 -146  0
-308 147 148  0
308 -147  0
308 -148  0
-309 149 150  0
309 -149  0
309 -150  0
-310 151 152  0
310 -151  0
310 -152  0
-311 153 154  0
311 -153  0
311 -154  0
-312 155 156  0
312 -155  0
312 -156  0
313 -157 -158  0
-313 157  0
-313 158  0
314 -159 -160  0
-314 159  0
-314 160  0
-315 161 162  0
315 -161  0
315 -162  0
-316 163 164  0
316 -163  0
316 -164  0
-317 165 166  0
317 -165  0
317 -166  0
-318 167 168  0
318 -167  0
318 -168  0
-319 169 170  0
319 -169  0
319 -170  0
-320 171 172  0
320 -171  0
320 -172  0
-321 173 174  0
321 -173  0
321 -174  0
322 -175 -176  0
-322 175  0
-322 176  0
323 -177 -178  0
-323 177  0
-323 178  0
-324 179 180  0
324 -179  0
324 -180  0
-325 181 182  0
325 -181  0
325 -182  0
-326 183 184  0
326 -183  0
326 -184  0
-327 185 186  0
327 -185  0
327 -186  0
-328 187 188  0
328 -187  0
328 -188  0
-329 189 190  0
329 -189  0
329 -190  0
-330 191 192  0
330 -191  0
330 -192  0
331 -193 -194  0
-331 193  0
-331 194  0
332 -195 -196  0
-332 195  0
-332 196  0
-333 197 198  0
333 -197  0
333 -198  0
-334 199 200  0
334 -199  0
334 -200  0
335 -201 -202  0
-335 201  0
-335 202  0
336 -203 -204  0
-336 203  0
-336 204  0
337 -205 -206  0
-337 205  0
-337 206  0
338 -207 -208  0
-338 207  0
-338 208  0
339 -209 -210  0
-339 209  0
-339 210  0
-340 211 212  0
340 -211  0
340 -212  0
-341 213 214  0
341 -213  0
341 -214  0
342 -215 -216  0
-342 215  0
-342 216  0
343 -217 -218  0
-343 217  0
-343 218  0
-344 219 220  0
344 -219  0
344 -220  0
-345 221 222  0
345 -221  0
345 -222  0
346 -223 -224  0
-346 223  0
-346 224  0
347 -225 -226  0
-347 225  0
-347 226  0
348 -227 -228  0
-348 227  0
-348 228  0
-349 229 230  0
349 -229  0
349 -230  0
-350 231 232  0
350 -231  0
350 -232  0
-351 233 234  0
351 -233  0
351 -234  0
-352 235 236  0
352 -235  0
352 -236  0
353 -237 -238  0
-353 237  0
-353 238  0
354 -239 -240  0
-354 239  0
-354 240  0
-355 241 242  0
355 -241  0
355 -242  0
-356 243 244  0
356 -243  0
356 -244  0
-357 245 246  0
357 -245  0
357 -246  0
358 -247 -248  0
-358 247  0
-358 248  0
359 -249 -250  0
-359 249  0
-359 250  0
360 -251 -252  0
-360 251  0
-360 252  0
361 -253 -254  0
-361 253  0
-361 254  0
-362 255 256  0
362 -255  0
362 -256  0
-363 257 258  0
363 -257  0
363 -258  0
-364 259 260  0
364 -259  0
364 -260  0
-365 261 262  0
365 -261  0
365 -262  0
-366 263 264  0
366 -263  0
366 -264  0
-367 265 266  0
367 -265  0
367 -266  0
368 -267 -268  0
-368 267  0
-368 268  0
369 -269 -270  0
-369 269  0
-369 270  0
370 -271 -272  0
-370 271  0
-370 272  0
371 -273 -274  0
-371 273  0
-371 274  0
372 -275 -276  0
-372 275  0
-372 276  0
373 -277 -278  0
-373 277  0
-373 278  0
-374 17 280  0
374 -17  0
374 -280  0
-375 -17 280  0
375 17  0
375 -280  0
-376 282 283  0
376 -282  0
376 -283  0
377 1 -284  0
-377 -1  0
-377 284  0
378 -1 -284  0
-378 1  0
-378 284  0
379 13 -286  0
-379 -13  0
-379 286  0
380 13 -289  0
-380 -13  0
-380 289  0
-381 17 290  0
381 -17  0
381 -290  0
-382 -17 290  0
382 17  0
382 -290  0
-383 291 292  0
383 -291  0
383 -292  0
384 -4 -293  0
-384 4  0
-384 293  0
385 4 -293  0
-385 -4  0
-385 293  0
-386 294 286  0
386 -294  0
386 -286  0
387 -295 -296  0
-387 295  0
-387 296  0
-388 15 297  0
388 -15  0
388 -297  0
-389 -15 297  0
389 15  0
389 -297  0
390 -298 297  0
-390 298  0
-390 -297  0
-391 -15 -296  0
391 15  0
391 296  0
-392 15 -296  0
392 -15  0
392 296  0
-393 -4 299  0
393 4  0
393 -299  0
-394 4 299  0
394 -4  0
394 -299  0
-395 -6 -289  0
395 6  0
395 289  0
-396 6 -289  0
396 -6  0
396 289  0
397 -11 -302  0
-397 11  0
-397 302  0
398 11 -302  0
-398 -11  0
-398 302  0
399 -303 -304  0
-399 303  0
-399 304  0
400 303 304  0
-400 -303  0
-400 -304  0
401 -305 -306  0
-401 305  0
-401 306  0
402 306 305  0
-402 -306  0
-402 -305  0
403 -307 -308  0
-403 307  0
-403 308  0
404 308 307  0
-404 -308  0
-404 -307  0
405 -309 -310  0
-405 309  0
-405 310  0
406 310 309  0
-406 -310  0
-406 -309  0
-407 311 312  0
407 -311  0
407 -312  0
-408 -312 -311  0
408 312  0
408 311  0
-409 313 314  0
409 -313  0
409 -314  0
-410 -313 -314  0
410 313  0
410 314  0
-411 315 316  0
411 -315  0
411 -316  0
-412 318 319  0
412 -318  0
412 -319  0
-413 -319 -318  0
413 319  0
413 318  0
-414 320 321  0
414 -320  0
414 -321  0
-415 -321 -320  0
415 321  0
415 320  0
-416 322 323  0
416 -322  0
416 -323  0
-417 -323 -322  0
417 323  0
417 322  0
418 -325 -326  0
-418 325  0
-418 326  0
-419 327 328  0
419 -327  0
419 -328  0
-420 -328 -327  0
420 328  0
420 327  0
-421 329 330  0
421 -329  0
421 -330  0
-422 -329 -330  0
422 329  0
422 330  0
-423 331 332  0
423 -331  0
423 -332  0
-424 -331 -332  0
424 331  0
424 332  0
-425 333 334  0
425 -333  0
425 -334  0
-426 -333 -334  0
426 333  0
426 334  0
427 -336 -337  0
-427 336  0
-427 337  0
-428 338 339  0
428 -338  0
428 -339  0
-429 -339 -338  0
429 339  0
429 338  0
-430 340 341  0
430 -340  0
430 -341  0
-431 -341 -340  0
431 341  0
431 340  0
-432 342 343  0
432 -342  0
432 -343  0
-433 -343 -342  0
433 343  0
433 342  0
-434 344 345  0
434 -344  0
434 -345  0
-435 -345 -344  0
435 345  0
435 344  0
436 -347 -348  0
-436 347  0
-436 348  0
437 -349 -350  0
-437 349  0
-437 350  0
438 350 349  0
-438 -350  0
-438 -349  0
439 -351 -352  0
-439 351  0
-439 352  0
440 351 352  0
-440 -351  0
-440 -352  0
441 -353 -354  0
-441 353  0
-441 354  0
442 354 353  0
-442 -354  0
-442 -353  0
-443 355 356  0
443 -355  0
443 -356  0
-444 358 359  0
444 -358  0
444 -359  0
-445 -358 -359  0
445 358  0
445 359  0
-446 360 361  0
446 -360  0
446 -361  0
-447 -360 -361  0
447 360  0
447 361  0
-448 362 363  0
448 -362  0
448 -363  0
-449 -362 -363  0
449 362  0
449 363  0
450 -364 -365  0
-450 364  0
-450 365  0
451 364 365  0
-451 -364  0
-451 -365  0
452 -366 -367  0
-452 366  0
-452 367  0
453 367 366  0
-453 -367  0
-453 -366  0
454 -368 -369  0
-454 368  0
-454 369  0
455 369 368  0
-455 -369  0
-455 -368  0
456 -370 -371  0
-456 370  0
-456 371  0
457 -284 -373  0
-457 284  0
-457 373  0
-458 -1 282  0
458 1  0
458 -282  0
-459 1 282  0
459 -1  0
459 -282  0
-460 -7 374  0
460 7  0
460 -374  0
-461 7 375  0
461 -7  0
461 -375  0
-462 2 376  0
462 -2  0
462 -376  0
-463 6 376  0
463 -6  0
463 -376  0
-464 11 377  0
464 -11  0
464 -377  0
-465 -11 378  0
465 11  0
465 -378  0
-466 -6 376  0
466 6  0
466 -376  0
-467 -7 376  0
467 7  0
467 -376  0
-468 -2 376  0
468 2  0
468 -376  0
-469 379 105  0
469 -379  0
469 -105  0
-470 380 112  0
470 -380  0
470 -112  0
471 16 -381  0
-471 -16  0
-471 381  0
472 -16 -382  0
-472 16  0
-472 382  0
473 5 -384  0
-473 -5  0
-473 384  0
474 -5 -385  0
-474 5  0
-474 385  0
475 5 -387  0
-475 -5  0
-475 387  0
476 14 -388  0
-476 -14  0
-476 388  0
477 -14 -389  0
-477 14  0
-477 389  0
478 4 -387  0
-478 -4  0
-478 387  0
479 -4 -387  0
-479 4  0
-479 387  0
480 -5 -387  0
-480 5  0
-480 387  0
-481 -4 390  0
481 4  0
481 -390  0
-482 -14 391  0
482 14  0
482 -391  0
-483 14 392  0
483 -14  0
483 -392  0
-484 4 390  0
484 -4  0
484 -390  0
-485 5 390  0
485 -5  0
485 -390  0
-486 -5 390  0
486 5  0
486 -390  0
487 5 -393  0
-487 -5  0
-487 393  0
488 -5 -394  0
-488 5  0
-488 394  0
-489 3 395  0
489 -3  0
489 -395  0
-490 -3 396  0
490 3  0
490 -396  0
491 -9 -397  0
-491 9  0
-491 397  0
492 9 -398  0
-492 -9  0
-492 398  0
-493 399 400  0
493 -399  0
493 -400  0
-494 401 402  0
494 -401  0
494 -402  0
-495 403 404  0
495 -403  0
495 -404  0
-496 405 406  0
496 -405  0
496 -406  0
497 -407 -408  0
-497 407  0
-497 408  0
498 -409 -410  0
-498 409  0
-498 410  0
-499 411 317  0
499 -411  0
499 -317  0
-500 -411 -317  0
500 411  0
500 317  0
501 -412 -413  0
-501 412  0
-501 413  0
502 -414 -415  0
-502 414  0
-502 415  0
503 -416 -417  0
-503 416  0
-503 417  0
-504 324 418  0
504 -324  0
504 -418  0
-505 -418 -324  0
505 418  0
505 324  0
506 -419 -420  0
-506 419  0
-506 420  0
507 -421 -422  0
-507 421  0
-507 422  0
508 -423 -424  0
-508 423  0
-508 424  0
509 -425 -426  0
-509 425  0
-509 426  0
-510 335 427  0
510 -335  0
510 -427  0
-511 -427 -335  0
511 427  0
511 335  0
512 -428 -429  0
-512 428  0
-512 429  0
513 -430 -431  0
-513 430  0
-513 431  0
514 -432 -433  0
-514 432  0
-514 433  0
515 -434 -435  0
-515 434  0
-515 435  0
516 -346 -436  0
-516 346  0
-516 436  0
517 346 436  0
-517 -346  0
-517 -436  0
-518 437 438  0
518 -437  0
518 -438  0
-519 439 440  0
519 -439  0
519 -440  0
-520 441 442  0
520 -441  0
520 -442  0
-521 443 357  0
521 -443  0
521 -357  0
-522 -357 -443  0
522 357  0
522 443  0
523 -444 -445  0
-523 444  0
-523 445  0
524 -446 -447  0
-524 446  0
-524 447  0
525 -448 -449  0
-525 448  0
-525 449  0
-526 450 451  0
526 -450  0
526 -451  0
-527 452 453  0
527 -452  0
527 -453  0
-528 454 455  0
528 -454  0
528 -455  0
529 -456 -372  0
-529 456  0
-529 372  0
530 372 456  0
-530 -372  0
-530 -456  0
-531 -7 457  0
531 7  0
531 -457  0
-532 2 457  0
532 -2  0
532 -457  0
-533 -11 458  0
533 11  0
533 -458  0
-534 11 459  0
534 -11  0
534 -459  0
-535 -6 457  0
535 6  0
535 -457  0
-536 6 457  0
536 -6  0
536 -457  0
-537 -2 457  0
537 2  0
537 -457  0
538 -460 -461  0
-538 460  0
-538 461  0
539 -464 -465  0
-539 464  0
-539 465  0
-540 285 469  0
540 -285  0
540 -469  0
541 -288 -470  0
-541 288  0
-541 470  0
-542 471 472  0
542 -471  0
542 -472  0
-543 473 474  0
543 -473  0
543 -474  0
-544 476 477  0
544 -476  0
544 -477  0
545 -482 -483  0
-545 482  0
-545 483  0
-546 487 488  0
546 -487  0
546 -488  0
547 -489 -490  0
-547 489  0
-547 490  0
-548 491 492  0
548 -491  0
548 -492  0
549 -493 -494  0
-549 493  0
-549 494  0
-550 495 496  0
550 -495  0
550 -496  0
-551 497 498  0
551 -497  0
551 -498  0
552 -499 -500  0
-552 499  0
-552 500  0
553 -502 -503  0
-553 502  0
-553 503  0
554 -504 -505  0
-554 504  0
-554 505  0
555 -507 -508  0
-555 507  0
-555 508  0
556 -510 -511  0
-556 510  0
-556 511  0
-557 512 513  0
557 -512  0
557 -513  0
558 -514 -515  0
-558 514  0
-558 515  0
-559 516 517  0
559 -516  0
559 -517  0
560 -519 -520  0
-560 519  0
-560 520  0
561 -521 -522  0
-561 521  0
-561 522  0
562 -524 -525  0
-562 524  0
-562 525  0
563 -526 -527  0
-563 526  0
-563 527  0
-564 529 530  0
564 -529  0
564 -530  0
565 -533 -534  0
-565 533  0
-565 534  0
-566 -6 539  0
566 6  0
566 -539  0
-567 6 539  0
567 -6  0
567 -539  0
-568 14 540  0
568 -14  0
568 -540  0
-569 -14 -540  0
569 14  0
569 540  0
570 287 -541  0
-570 -287  0
-570 541  0
571 -543 -386  0
-571 543  0
-571 386  0
572 386 543  0
-572 -386  0
-572 -543  0
573 -4 -544  0
-573 4  0
-573 544  0
574 4 -544  0
-574 -4  0
-574 544  0
-575 4 545  0
575 -4  0
575 -545  0
-576 -4 545  0
576 4  0
576 -545  0
-577 546 386  0
577 -546  0
577 -386  0
-578 -546 -386  0
578 546  0
578 386  0
579 -549 -550  0
-579 549  0
-579 550  0
580 550 549  0
-580 -550  0
-580 -549  0
581 -552 -501  0
-581 552  0
-581 501  0
-582 554 506  0
582 -554  0
582 -506  0
-583 509 556  0
583 -509  0
583 -556  0
-584 557 558  0
584 -557  0
584 -558  0
-585 -557 -558  0
585 557  0
585 558  0
-586 559 518  0
586 -559  0
586 -518  0
-587 561 523  0
587 -561  0
587 -523  0
-588 528 564  0
588 -528  0
588 -564  0
-589 6 565  0
589 -6  0
589 -565  0
-590 -6 565  0
590 6  0
590 -565  0
591 -463 -566  0
-591 463  0
-591 566  0
592 -567 -466  0
-592 567  0
-592 466  0
593 -568 -569  0
-593 568  0
-593 569  0
-594 571 572  0
594 -571  0
594 -572  0
-595 573 478  0
595 -573  0
595 -478  0
-596 479 574  0
596 -479  0
596 -574  0
597 -481 -575  0
-597 481  0
-597 575  0
598 -576 -484  0
-598 576  0
-598 484  0
599 -577 -578  0
-599 577  0
-599 578  0
-600 579 580  0
600 -579  0
600 -580  0
601 -551 -581  0
-601 551  0
-601 581  0
602 581 551  0
-602 -581  0
-602 -551  0
603 -553 -582  0
-603 553  0
-603 582  0
604 553 582  0
-604 -553  0
-604 -582  0
605 -555 -583  0
-605 555  0
-605 583  0
606 583 555  0
-606 -583  0
-606 -555  0
607 -584 -585  0
-607 584  0
-607 585  0
-608 586 560  0
608 -586  0
608 -560  0
-609 -586 -560  0
609 586  0
609 560  0
-610 587 562  0
610 -587  0
610 -562  0
-611 -587 -562  0
611 587  0
611 562  0
-612 563 588  0
612 -563  0
612 -588  0
-613 -563 -588  0
613 563  0
613 588  0
614 -589 -535  0
-614 589  0
-614 535  0
615 -590 -536  0
-615 590  0
-615 536  0
-616 -1 591  0
616 1  0
616 -591  0
-617 1 592  0
617 -1  0
617 -592  0
618 5 -593  0
-618 -5  0
-618 593  0
619 -5 593  0
-619 5  0
-619 -593  0
620 -7 -595  0
-620 7  0
-620 595  0
621 7 -596  0
-621 -7  0
-621 596  0
-622 7 597  0
622 -7  0
622 -597  0
-623 -7 598  0
623 7  0
623 -598  0
-624 601 602  0
624 -601  0
624 -602  0
-625 603 604  0
625 -603  0
625 -604  0
-626 605 606  0
626 -605  0
626 -606  0
627 -608 -609  0
-627 608  0
-627 609  0
628 -610 -611  0
-628 610  0
-628 611  0
629 -612 -613  0
-629 612  0
-629 613  0
-630 1 614  0
630 -1  0
630 -614  0
-631 -1 615  0
631 1  0
631 -615  0
632 -616 -617  0
-632 616  0
-632 617  0
-633 618 619  0
633 -618  0
633 -619  0
-634 620 621  0
634 -620  0
634 -621  0
635 -622 -623  0
-635 622  0
-635 623  0
636 -600 -624  0
-636 600  0
-636 624  0
-637 625 626  0
637 -625  0
637 -626  0
638 -607 -627  0
-638 607  0
-638 627  0
-639 628 629  0
639 -628  0
639 -629  0
640 -630 -631  0
-640 630  0
-640 631  0
-641 -2 632  0
641 2  0
641 -632  0
-642 -7 632  0
642 7  0
642 -632  0
-643 2 632  0
643 -2  0
643 -632  0
644 -633 -287  0
-644 633  0
-644 287  0
645 -5 -634  0
-645 5  0
-645 634  0
646 5 -634  0
-646 -5  0
-646 634  0
-647 -5 635  0
647 5  0
647 -635  0
-648 5 635  0
648 -5  0
648 -635  0
-649 636 637  0
649 -636  0
649 -637  0
-650 -636 -637  0
650 636  0
650 637  0
-651 638 639  0
651 -638  0
651 -639  0
-652 -639 -638  0
652 639  0
652 638  0
-653 -2 640  0
653 2  0
653 -640  0
-654 -7 640  0
654 7  0
654 -640  0
-655 2 640  0
655 -2  0
655 -640  0
656 -462 -641  0
-656 462  0
-656 641  0
657 -643 -468  0
-657 643  0
-657 468  0
-658 644 570  0
658 -644  0
658 -570  0
-659 475 645  0
659 -475  0
659 -645  0
-660 480 646  0
660 -480  0
660 -646  0
661 -647 -485  0
-661 647  0
-661 485  0
662 -486 -648  0
-662 486  0
-662 648  0
663 -649 -650  0
-663 649  0
-663 650  0
664 -651 -652  0
-664 651  0
-664 652  0
665 -532 -653  0
-665 532  0
-665 653  0
666 -537 -655  0
-666 537  0
-666 655  0
-667 7 656  0
667 -7  0
667 -656  0
-668 7 657  0
668 -7  0
668 -657  0
669 -9 -659  0
-669 9  0
-669 659  0
670 11 -660  0
-670 -11  0
-670 660  0
671 -11 -659  0
-671 11  0
-671 659  0
-672 -11 661  0
672 11  0
672 -661  0
-673 11 662  0
673 -11  0
673 -662  0
-674 -9 661  0
674 9  0
674 -661  0
675 -663 -664  0
-675 663  0
-675 664  0
-676 7 665  0
676 -7  0
676 -665  0
-677 7 666  0
677 -7  0
677 -666  0
678 -667 -467  0
-678 667  0
-678 467  0
679 -642 -668  0
-679 642  0
-679 668  0
-680 670 671  0
680 -670  0
680 -671  0
681 -672 -673  0
-681 672  0
-681 673  0
682 -531 -676  0
-682 531  0
-682 676  0
683 -654 -677  0
-683 654  0
-683 677  0
-684 10 678  0
684 -10  0
684 -678  0
-685 -10 679  0
685 10  0
685 -679  0
686 9 -680  0
-686 -9  0
-686 680  0
-687 9 681  0
687 -9  0
687 -681  0
-688 10 682  0
688 -10  0
688 -682  0
-689 -10 683  0
689 10  0
689 -683  0
690 -684 -685  0
-690 684  0
-690 685  0
-691 669 686  0
691 -669  0
691 -686  0
692 -687 -674  0
-692 687  0
-692 674  0
693 -688 -689  0
-693 688  0
-693 689  0
694 -594 -691  0
-694 594  0
-694 691  0
695 -692 -599  0
-695 692  0
-695 599  0
-696 -2 694  0
696 2  0
696 -694  0
-697 2 -694  0
697 -2  0
697 694  0
698 -694 383  0
-698 694  0
-698 -383  0
-699 695 -658  0
699 -695  0
699 658  0
-700 695 383  0
700 -695  0
700 -383  0
-701 -694 -658  0
701 694  0
701 658  0
702 -696 -697  0
-702 696  0
-702 697  0
703 3 -702  0
-703 -3  0
-703 702  0
704 -3 702  0
-704 3  0
-704 -702  0
-705 -3 -702  0
705 3  0
705 702  0
-706 3 702  0
706 -3  0
706 -702  0
-707 703 704  0
707 -703  0
707 -704  0
708 -705 -706  0
-708 705  0
-708 706  0
709 -383 -707  0
-709 383  0
-709 707  0
-710 -383 708  0
710 383  0
710 -708  0
-711 709 698  0
711 -709  0
711 -698  0
712 -700 -710  0
-712 700  0
-712 710  0
-713 542 711  0
713 -542  0
713 -711  0
-714 -542 -711  0
714 542  0
714 711  0
-715 -542 712  0
715 542  0
715 -712  0
-716 542 -712  0
716 -542  0
716 712  0
717 -713 -714  0
-717 713  0
-717 714  0
718 -715 -716  0
-718 715  0
-718 716  0
-719 658 717  0
719 -658  0
719 -717  0
-720 718 658  0
720 -718  0
720 -658  0
721 -719 -699  0
-721 719  0
-721 699  0
722 -720 -701  0
-722 720  0
-722 701  0
-723 9 721  0
723 -9  0
723 -721  0
-724 -9 721  0
724 9  0
724 -721  0
-725 721 301  0
725 -721  0
725 -301  0
-726 -690 721  0
726 690  0
726 -721  0
-727 722 -690  0
727 -722  0
727 690  0
-728 722 301  0
728 -722  0
728 -301  0
729 9 -722  0
-729 -9  0
-729 722  0
730 -9 -722  0
-730 9  0
-730 722  0
-731 100 723  0
731 -100  0
731 -723  0
-732 -100 724  0
732 100  0
732 -724  0
-733 100 724  0
733 -100  0
733 -724  0
-734 -100 723  0
734 100  0
734 -723  0
-735 -100 729  0
735 100  0
735 -729  0
-736 100 730  0
736 -100  0
736 -730  0
-737 100 729  0
737 -100  0
737 -729  0
-738 -100 730  0
738 100  0
738 -730  0
739 -731 -732  0
-739 731  0
-739 732  0
740 -733 -734  0
-740 733  0
-740 734  0
741 -735 -736  0
-741 735  0
-741 736  0
742 -737 -738  0
-742 737  0
-742 738  0
-743 739 300  0
743 -739  0
743 -300  0
-744 740 -301  0
744 -740  0
744 301  0
-745 741 -301  0
745 -741  0
745 301  0
746 -742 -301  0
-746 742  0
-746 301  0
-747 743 547  0
747 -743  0
747 -547  0
748 -725 -744  0
-748 725  0
-748 744  0
-749 743 -547  0
749 -743  0
749 547  0
750 -728 -745  0
-750 728  0
-750 745  0
-751 547 746  0
751 -547  0
751 -746  0
-752 -547 746  0
752 547  0
752 -746  0
-753 -547 748  0
753 547  0
753 -748  0
-754 547 748  0
754 -547  0
754 -748  0
-755 750 -547  0
755 -750  0
755 547  0
-756 750 547  0
756 -750  0
756 -547  0
757 -747 -753  0
-757 747  0
-757 753  0
758 -754 -749  0
-758 754  0
-758 749  0
759 -755 -751  0
-759 755  0
-759 751  0
760 -756 -752  0
-760 756  0
-760 752  0
-761 690 757  0
761 -690  0
761 -757  0
-762 690 758  0
762 -690  0
762 -758  0
-763 690 759  0
763 -690  0
763 -759  0
764 -693 -760  0
-764 693  0
-764 760  0
765 -761 -726  0
-765 761  0
-765 726  0
-766 -12 762  0
766 12  0
766 -762  0
-767 12 762  0
767 -12  0
767 -762  0
-768 281 762  0
768 -281  0
768 -762  0
769 -727 -763  0
-769 727  0
-769 763  0
-770 281 764  0
770 -281  0
770 -764  0
-771 -12 764  0
771 12  0
771 -764  0
-772 12 764  0
772 -12  0
772 -764  0
-773 281 765  0
773 -281  0
773 -765  0
-774 12 765  0
774 -12  0
774 -765  0
-775 -12 765  0
775 12  0
775 -765  0
-776 -14 765  0
776 14  0
776 -765  0
-777 14 765  0
777 -14  0
777 -765  0
-778 765 279  0
778 -765  0
778 -279  0
-779 -14 769  0
779 14  0
779 -769  0
-780 12 769  0
780 -12  0
780 -769  0
-781 -12 769  0
781 12  0
781 -769  0
-782 281 769  0
782 -281  0
782 -769  0
-783 14 769  0
783 -14  0
783 -769  0
-784 769 279  0
784 -769  0
784 -279  0
785 -766 -774  0
-785 766  0
-785 774  0
786 -775 -767  0
-786 775  0
-786 767  0
787 -771 -780  0
-787 771  0
-787 780  0
788 -772 -781  0
-788 772  0
-788 781  0
-789 134 785  0
789 -134  0
789 -785  0
-790 786 -134  0
790 -786  0
790 134  0
-791 786 134  0
791 -786  0
791 -134  0
-792 785 -134  0
792 -785  0
792 134  0
-793 -134 787  0
793 134  0
793 -787  0
-794 134 788  0
794 -134  0
794 -788  0
-795 788 -134  0
795 -788  0
795 134  0
-796 134 787  0
796 -134  0
796 -787  0
797 -789 -790  0
-797 789  0
-797 790  0
798 -791 -792  0
-798 791  0
-798 792  0
799 -793 -794  0
-799 793  0
-799 794  0
800 -795 -796  0
-800 795  0
-800 796  0
-801 797 -281  0
801 -797  0
801 281  0
-802 798 -281  0
802 -798  0
802 281  0
-803 799 -281  0
803 -799  0
803 281  0
-804 -281 800  0
804 281  0
804 -800  0
805 -773 -801  0
-805 773  0
-805 801  0
806 -802 -768  0
-806 802  0
-806 768  0
807 -770 -803  0
-807 770  0
-807 803  0
808 -804 -782  0
-808 804  0
-808 782  0
-809 538 805  0
809 -538  0
809 -805  0
-810 -538 806  0
810 538  0
810 -806  0
-811 -538 807  0
811 538  0
811 -807  0
-812 538 808  0
812 -538  0
812 -808  0
813 -809 -810  0
-813 809  0
-813 810  0
814 -811 -812  0
-814 811  0
-814 812  0
-815 279 813  0
815 -279  0
815 -813  0
-816 14 813  0
816 -14  0
816 -813  0
-817 -14 813  0
817 14  0
817 -813  0
-818 14 814  0
818 -14  0
818 -814  0
-819 -14 814  0
819 14  0
819 -814  0
-820 814 279  0
820 -814  0
820 -279  0
821 -776 -816  0
-821 776  0
-821 816  0
822 -817 -777  0
-822 817  0
-822 777  0
823 -779 -818  0
-823 779  0
-823 818  0
824 -783 -819  0
-824 783  0
-824 819  0
-825 5 821  0
825 -5  0
825 -821  0
-826 -5 822  0
826 5  0
826 -822  0
-827 5 822  0
827 -5  0
827 -822  0
-828 -5 821  0
828 5  0
828 -821  0
-829 -5 823  0
829 5  0
829 -823  0
-830 5 824  0
830 -5  0
830 -824  0
-831 5 823  0
831 -5  0
831 -823  0
-832 -5 824  0
832 5  0
832 -824  0
833 -825 -826  0
-833 825  0
-833 826  0
834 -827 -828  0
-834 827  0
-834 828  0
835 -829 -830  0
-835 829  0
-835 830  0
836 -831 -832  0
-836 831  0
-836 832  0
-837 833 -279  0
837 -833  0
837 279  0
-838 834 -279  0
838 -834  0
838 279  0
-839 -279 835  0
839 279  0
839 -835  0
-840 836 -279  0
840 -836  0
840 279  0
841 -815 -837  0
-841 815  0
-841 837  0
842 -778 -838  0
-842 778  0
-842 838  0
843 -839 -784  0
-843 839  0
-843 784  0
844 -820 -840  0
-844 820  0
-844 840  0
-845 841 548  0
845 -841  0
845 -548  0
-846 -548 842  0
846 548  0
846 -842  0
-847 -548 843  0
847 548  0
847 -843  0
-848 844 548  0
848 -844  0
848 -548  0
849 -845 -846  0
-849 845  0
-849 846  0
850 -847 -848  0
-850 847  0
-850 848  0
-851 849 675  0
851 -849  0
851 -675  0
-852 850 -675  0
852 -850  0
852 675  0
853 -851 -852  0
-853 851  0
-853 852  0
